   0     1     2     3     4     5     6     7     8     9     10     11       items
        2,9   1,6   3,15   2,7   3,8   3,5   7,8   7,3   1,3   5,6   7,8   
   ------------------------------------------------------------------------
0| 0     0     0     0     0     0     0     0     0     0     0     0     
1| 0     0     6     6     6     6     6     6     -1     -1     -1     -1     
2| 0     9     9     9     9     9     9     9     -1     -1     -1     -1     
3| 0     9     15     15     15     15     15     15     15     -1     -1     -1     
4| 0     9     15     21     21     21     21     21     21     21     -1     -1     
5| 0     9     15     24     24     24     -1     -1     -1     -1     -1     -1     
6| 0     9     15     30     30     30     -1     -1     -1     -1     -1     -1     
7| 0     9     15     30     31     31     -1     -1     -1     -1     -1     -1     
8| 0     9     15     30     37     37     37     37     37     -1     -1     -1     
9| 0     9     15     30     37     38     38     38     38     40     40     -1     
10| 0     9     15     30     37     39     39     39     39     -1     -1     -1     
11| 0     9     15     30     37     45     45     45     45     45     -1     -1     
12| 0     9     15     30     37     45     -1     -1     -1     -1     -1     -1     
13| 0     9     15     30     37     45     -1     -1     -1     -1     -1     -1     
14| 0     9     15     30     -1     -1     -1     -1     -1     -1     -1     -1     
15| 0     9     15     30     37     45     50     50     50     -1     -1     -1     
16| 0     9     15     30     37     45     50     50     50     53     53     53     
(1 , 3)  - (3 , 5)  - (3 , 8)  - (2 , 7)  - (3 , 15)  - (1 , 6)  - (2 , 9)  - 
Total grab 53 weighing 15 (max 16)
